16
6 9
6 7
6 10
6 2
6 13
6 14
6 3
6 11
6 4
6 12
9 14
9 8
9 13
9 11
9 1
9 5
9 4
9 2
9 15
7 12
7 0
7 3
7 8
7 15
7 5
7 14
7 1
7 4
12 3
12 1
12 8
12 13
12 14
12 5
12 10
12 15
0 4
0 1
0 11
0 5
0 8
0 2
0 15
0 3
0 13
3 11
3 5
3 15
3 10
3 13
3 8
5 8
5 11
5 1
5 10
5 13
8 15
8 10
8 11
8 1
10 4
10 14
10 1
10 11
10 2
4 15
4 11
4 13
4 2
4 14
15 14
15 11
15 2
2 11
2 13
2 14
2 1
14 1
14 13
1 13
